NAME : tour.tour
TIME : 2020-10-26 21:33:00
LENGTH : 909.7251548526797
COMMENT : hello world
DIMENSION : 29
TOUR_SECTION
10
11
12
13
14
0
27
15
19
20
26
25
18
17
16
28
1
2
3
4
5
6
7
24
8
23
9
22
21
EOF
